Version identifier: 20.1.0.0 | 2020-11-10 | 9bedb6d68
CPXPARAM_Threads                                 1
CPXPARAM_TimeLimit                               7200
CPXPARAM_MIP_Tolerances_MIPGap                   0
Generic callback                                 0x60
1 of 1 MIP starts provided solutions.
MIP start 'm1' defined initial solution with objective 1591.7508.
Tried aggregator 1 time.
Reduced MIP has 250501 rows, 250501 columns, and 750500 nonzeros.
Reduced MIP has 500 binaries, 0 generals, 0 SOSs, and 0 indicators.
Presolve time = 0.25 sec. (239.04 ticks)
Probing time = 0.03 sec. (31.29 ticks)
Tried aggregator 1 time.
Reduced MIP has 250501 rows, 250501 columns, and 750500 nonzeros.
Reduced MIP has 500 binaries, 0 generals, 0 SOSs, and 0 indicators.
Presolve time = 0.25 sec. (234.98 ticks)
Probing time = 0.03 sec. (31.29 ticks)
MIP emphasis: balance optimality and feasibility.
MIP search method: dynamic search.
Parallel mode: none, using 1 thread.
Root relaxation solution time = 0.08 sec. (96.49 ticks)

        Nodes                                         Cuts/
   Node  Left     Objective  IInf  Best Integer    Best Bound    ItCnt     Gap

*     0+    0                         1591.7508     2716.0000            70.63%
      0     0     1595.8894    37     1591.7508     2716.0000        0   70.63%
      0     2     1595.8894    37     1591.7508     1595.8893        0    0.26%
Elapsed time = 77.84 sec. (62683.21 ticks, tree = 0.01 MB, solutions = 1)
*     1     1      integral     0     1594.9468     1595.8893      451    0.06%
      1     1     1594.9468     0     1594.9468     1595.8881      451    0.06%
      2     0        cutoff           1594.9468     1594.9468     2720    0.00%

User cuts applied:  2

Root node processing (before b&c):
  Real time             =   77.82 sec. (62650.33 ticks)
Sequential b&c:
  Real time             =   31.80 sec. (23194.30 ticks)
                          ------------
Total (root+branch&cut) =  109.61 sec. (85844.64 ticks)
@Parameters: 
is_S_cut                                true
is_add_all_yinF                         true
is_start_value                          true
is_usercut                              true
is_visualization                        false
uc_only_rootnode                        false

data                                    Qi
fn                                      data/Qi/instance_500_500.csv
mode                                    ZLP
solver                                  cplex

p                                       10
r                                       5

EPS                                     1.0e-06
EPS_vio                                 1.0e-04
beta                                    0.10
gap                                     0.00
nodelimit                               Inf
timelimit                               7200.00


@PrintInfos
ItCnt: 2720
Current gap: 0.00 %
Termination Status: OPTIMAL
Primal Status: FEASIBLE_POINT
Solve Time: 109.61 sec
Objective Value: 1594.946777
Number of Nodes:      3

CutInfo: [phase] num / time (sec) 
ZLP             [phase1]     0 / 0.00 [rLC]     3 / 5.40 [rUC]     2 / 2.33 [sLC]     1 / 1.71 [sUC]     0 / 0.00 
OldSubmodular   [phase1]     0 / 0.00 [rLC]     0 / 0.00 [rUC]     0 / 0.00 [sLC]     0 / 0.00 [sUC]     0 / 0.00 
NewSubmodular   [phase1]     0 / 0.00 [rLC]     0 / 0.00 [rUC]     0 / 0.00 [sLC]     0 / 0.00 [sUC]     0 / 0.00 
PMP             [phase1]     0 / 0.00 [rLC]     4 / 3.32 [rUC]     2 / 1.37 [sLC]     2 / 1.35 [sUC]     0 / 0.00 
Separation Round: [phase1] 0  [rLC] 4  [rUC] 2  [sLC] 2  [sUC] 0
Root Best Bound 1594.946777
Root Best Integer: 1594.946777
Best Bound: 1594.946777
Best Integer: 1594.946777

